
Gurobi 9.0.1 (linux64) logging started Thu Apr 30 06:20:50 2020

Gurobi Optimizer version 9.0.1 build v9.0.1rc0 (linux64)
Optimize a model with 2234 rows, 2120 columns and 20112 nonzeros
Model fingerprint: 0x8b9e09db
Variable types: 0 continuous, 2120 integer (2106 binary)
Coefficient statistics:
  Matrix range     [1e+00, 7e+00]
  Objective range  [2e+00, 1e+02]
  Bounds range     [1e+00, 1e+00]
  RHS range        [1e+00, 1e+00]

User MIP start produced solution with objective 571 (0.01s)
Loaded user MIP start with objective 571

Presolve removed 1004 rows and 912 columns
Presolve time: 0.12s
Presolved: 1230 rows, 1208 columns, 11904 nonzeros
Variable types: 0 continuous, 1208 integer (1208 binary)

Root relaxation: objective 3.982878e+02, 768 iterations, 0.06 seconds

    Nodes    |    Current Node    |     Objective Bounds      |     Work
 Expl Unexpl |  Obj  Depth IntInf | Incumbent    BestBd   Gap | It/Node Time

     0     0  398.28783    0  293  571.00000  398.28783  30.2%     -    0s
     0     0  438.11020    0  298  571.00000  438.11020  23.3%     -    0s
     0     0  439.94287    0  265  571.00000  439.94287  23.0%     -    0s
     0     0  439.94950    0  264  571.00000  439.94950  23.0%     -    0s
     0     0  458.01696    0  311  571.00000  458.01696  19.8%     -    0s
     0     0  458.10926    0  314  571.00000  458.10926  19.8%     -    0s
     0     0  458.12332    0  315  571.00000  458.12332  19.8%     -    0s
     0     0  468.99465    0  300  571.00000  468.99465  17.9%     -    1s
     0     0  469.29431    0  306  571.00000  469.29431  17.8%     -    1s
     0     0  469.35126    0  299  571.00000  469.35126  17.8%     -    1s
     0     0  469.36474    0  301  571.00000  469.36474  17.8%     -    1s
     0     0  481.28192    0  312  571.00000  481.28192  15.7%     -    1s
     0     0  482.11477    0  308  571.00000  482.11477  15.6%     -    1s
     0     0  482.12288    0  309  571.00000  482.12288  15.6%     -    1s
     0     0  483.37070    0  325  571.00000  483.37070  15.3%     -    1s
     0     0  483.52483    0  322  571.00000  483.52483  15.3%     -    2s
     0     0  483.53831    0  319  571.00000  483.53831  15.3%     -    2s
     0     0  484.66664    0  324  571.00000  484.66664  15.1%     -    2s
     0     0  484.74190    0  319  571.00000  484.74190  15.1%     -    2s
     0     0  484.76286    0  322  571.00000  484.76286  15.1%     -    2s
     0     0  484.98725    0  330  571.00000  484.98725  15.1%     -    2s
     0     0  484.98725    0  327  571.00000  484.98725  15.1%     -    2s
     0     0  485.08461    0  285  571.00000  485.08461  15.0%     -    2s
     0     0  485.08461    0  297  571.00000  485.08461  15.0%     -    3s
     0     0  485.08461    0  292  571.00000  485.08461  15.0%     -    3s
     0     0  485.08461    0  294  571.00000  485.08461  15.0%     -    3s
     0     0  485.08461    0  305  571.00000  485.08461  15.0%     -    3s
     0     0  485.08461    0  303  571.00000  485.08461  15.0%     -    3s
     0     0  485.08461    0  302  571.00000  485.08461  15.0%     -    3s
     0     0  487.95862    0  324  571.00000  487.95862  14.5%     -    3s
     0     0  488.18351    0  312  571.00000  488.18351  14.5%     -    3s
     0     0  488.18982    0  312  571.00000  488.18982  14.5%     -    3s
     0     0  489.77041    0  318  571.00000  489.77041  14.2%     -    4s
     0     0  490.00626    0  316  571.00000  490.00626  14.2%     -    4s
     0     0  490.05238    0  311  571.00000  490.05238  14.2%     -    4s
     0     0  490.18104    0  328  571.00000  490.18104  14.2%     -    4s
     0     0  490.18104    0  328  571.00000  490.18104  14.2%     -    4s
     0     2  490.23501    0  328  571.00000  490.23501  14.1%     -    4s
     9    11  498.99245    5  323  571.00000  495.45604  13.2%   403    5s
*  242   114              14     570.0000000  505.61640  11.3%   140    9s
   248   112  562.86667   14  109  570.00000  505.61640  11.3%   137   10s
*  348   133              22     569.0000000  511.46364  10.1%   123   11s
H  385   129                     566.0000000  516.89931  8.68%   119   12s
   577   158  540.52703   16  178  566.00000  526.41739  6.99%   105   15s
   928   172  542.80066   12  156  566.00000  536.55196  5.20%  94.1   20s
H  975   169                     565.0000000  536.94184  4.97%  92.3   20s
  1438   100     cutoff   15       565.00000  548.61015  2.90%  81.8   25s

Cutting planes:
  Gomory: 4
  Cover: 5
  MIR: 29
  Inf proof: 4
  Zero half: 32
  RLT: 94

Explored 1618 nodes (131526 simplex iterations) in 26.40 seconds
Thread count was 1 (of 40 available processors)

Solution count 5: 565 566 569 ... 571

Optimal solution found (tolerance 1.00e-04)
Best objective 5.650000000000e+02, best bound 5.650000000000e+02, gap 0.0000%

User-callback calls 8206, time in user-callback 0.01 sec
